9 98
11 139
5 180
33 100
39 25
59 46
63 37
74 30
18 102
88 32
50 58
24 73
35 98
11 75
2 33
11 130
80 66
15 25
61 27
9 163
40 20
17 68
49 9
20 94
30 183
22 174
7 60
45 20
96 2
18 29
45 54
11 162
15 111
27 173
67 33
62 85
23 36
93 41
5 20
47 64
53 69
53 49
7 122
12 58
37 123
12 154
24 53
38 96
93 15
28 5
